1882.42
0 65 39 51 43 75 52 0
0 69 21 45 30 6 0
0 11 59 15 29 63 0
0 71 70 35 14 66 55 0
0 37 20 60 61 40 0
0 5 47 42 56 73 44 0
0 74 28 72 4 46 0
0 64 41 16 3 53 0
0 1 22 19 38 25 12 0
0 58 10 32 49 17 0
0 48 62 33 23 9 0
0 27 8 34 67 26 0
0 57 13 54 7 31 68 0
0 50 18 24 2 36 0
